
Gurobi 12.0.0 (win64) logging started Mon May  4 20:52:01 2026

Set parameter LogFile to value "C:\Users\Asus\Documents\GitHub\logistics-model2\internal-logistics-model2\results\MR_MV_WT\case3\result_MR_MV_WT_case3_P5_R3_eps9999_2026_05_04_20_52.log"
Gurobi Optimizer version 12.0.0 build v12.0.0rc1 (win64 - Windows 10.0 (19045.2))

CPU model: 12th Gen Intel(R) Core(TM) i7-12650H, instruction set [SSE2|AVX|AVX2]
Thread count: 10 physical cores, 16 logical processors, using up to 16 threads

Non-default parameters:
TimeLimit  600
MIPGap  0.01
Presolve  2

Optimize a model with 24417 rows, 7277 columns and 122577 nonzeros
Model fingerprint: 0x3667a773
Variable types: 1157 continuous, 6120 integer (5895 binary)
Coefficient statistics:
  Matrix range     [1e+00, 5e+02]
  Objective range  [1e-03, 1e+00]
  Bounds range     [1e+00, 3e+01]
  RHS range        [1e+00, 1e+04]
Presolve removed 21990 rows and 6429 columns
Presolve time: 0.09s
Presolved: 2427 rows, 848 columns, 12864 nonzeros
Variable types: 281 continuous, 567 integer (504 binary)
Root relaxation presolve removed 39 rows and 0 columns
Root relaxation presolved: 2388 rows, 878 columns, 12688 nonzeros


Root relaxation: objective 0.000000e+00, 270 iterations, 0.02 seconds (0.03 work units)

    Nodes    |    Current Node    |     Objective Bounds      |     Work
 Expl Unexpl |  Obj  Depth IntInf | Incumbent    BestBd   Gap | It/Node Time

     0     0    0.00000    0   51          -    0.00000      -     -    0s
H    0     0                    52259.999000    0.00000   100%     -    0s
H    0     0                      49.1790000    0.00000   100%     -    0s
     0     0    0.00000    0   68   49.17900    0.00000   100%     -    0s
H    0     0                      48.2120000    0.00000   100%     -    0s
H    0     0                      48.1990000    0.00000   100%     -    0s
     0     0    0.00000    0   50   48.19900    0.00000   100%     -    0s
     0     0    3.00000    0   70   48.19900    3.00000  93.8%     -    0s
     0     0    3.00000    0   70   48.19900    3.00000  93.8%     -    0s
     0     0    3.00000    0   72   48.19900    3.00000  93.8%     -    0s
     0     0    3.00299    0   89   48.19900    3.00299  93.8%     -    0s
     0     0    4.00000    0   89   48.19900    4.00000  91.7%     -    0s
     0     0    4.00000    0   84   48.19900    4.00000  91.7%     -    0s
     0     0    6.05103    0   82   48.19900    6.05103  87.4%     -    0s
     0     0    6.05103    0   82   48.19900    6.05103  87.4%     -    0s
     0     0    6.80707    0   86   48.19900    6.80707  85.9%     -    0s
     0     0    7.02336    0   96   48.19900    7.02336  85.4%     -    0s
     0     0    7.03234    0  108   48.19900    7.03234  85.4%     -    0s
     0     0    7.03234    0  110   48.19900    7.03234  85.4%     -    0s
     0     0    7.03234    0  112   48.19900    7.03234  85.4%     -    0s
     0     0   10.50918    0   72   48.19900   10.50918  78.2%     -    0s
     0     0   12.00918    0   81   48.19900   12.00918  75.1%     -    0s
H    0     0                      45.1960000   12.00918  73.4%     -    0s
     0     0   15.00000    0  103   45.19600   15.00000  66.8%     -    0s
     0     0   15.00000    0   97   45.19600   15.00000  66.8%     -    0s
     0     0   15.00000    0  101   45.19600   15.00000  66.8%     -    0s
     0     0   15.00000    0   85   45.19600   15.00000  66.8%     -    0s
H    0     0                      45.1850000   15.00000  66.8%     -    0s
     0     0   15.00000    0   71   45.18500   15.00000  66.8%     -    0s
     0     0   15.00000    0   63   45.18500   15.00000  66.8%     -    0s
     0     0   15.00000    0   49   45.18500   15.00000  66.8%     -    0s
     0     0   15.00000    0   57   45.18500   15.00000  66.8%     -    0s
H    0     0                      45.1430000   15.00000  66.8%     -    0s
H    0     0                      45.1410000   15.00000  66.8%     -    1s
     0     0   15.00000    0   48   45.14100   15.00000  66.8%     -    1s
     0     0   15.00000    0   48   45.14100   15.00000  66.8%     -    1s
     0     0   15.00000    0   53   45.14100   15.00000  66.8%     -    1s
H    0     0                      43.1940000   15.00000  65.3%     -    1s
H    0     0                      43.1830000   15.00000  65.3%     -    1s
     0     0   15.00000    0   53   43.18300   15.00000  65.3%     -    1s
     0     0   15.00000    0   56   43.18300   15.00000  65.3%     -    1s
H    0     0                      42.1780000   15.00000  64.4%     -    1s
     0     0   15.00000    0   54   42.17800   15.00000  64.4%     -    1s
     0     2   15.00000    0   51   42.17800   15.00000  64.4%     -    1s
  9734   470   26.57200   10   29   42.17800   24.07139  42.9%  32.2    5s

Cutting planes:
  Learned: 68
  Gomory: 8
  Cover: 140
  Implied bound: 414
  Clique: 6
  MIR: 261
  StrongCG: 2
  Flow cover: 2
  Inf proof: 8
  Zero half: 30
  RLT: 75
  Relax-and-lift: 131
  BQP: 1

Explored 11810 nodes (380599 simplex iterations) in 5.39 seconds (6.79 work units)
Thread count was 16 (of 16 available processors)

Solution count 10: 42.178 43.183 43.194 ... 49.179

Optimal solution found (tolerance 1.00e-02)
Best objective 4.217800000000e+01, best bound 4.217800000000e+01, gap 0.0000%
